100
30 0
20 0
43 1
6 3
11 1
43 4
32 3
2 4
13 2
30 1
5 3
40 3
6 0
33 3
39 4
18 0
27 4
5 4
23 4
4 3
0 0
40 0
14 4
15 4
16 2
22 4
15 2
14 3
39 0
36 2
28 0
25 0
37 4
34 2
16 1
16 4
29 0
21 3
2 1
19 4
33 2
18 1
3 0
29 4
34 0
36 1
25 4
33 4
32 4
23 1
31 0
23 0
27 3
34 4
42 4
31 3
1 3
36 0
2 0
3 4
10 3
12 3
1 4
29 3
9 1
21 0
40 4
41 0
25 3
16 0
38 0
18 4
12 0
0 3
21 1
19 0
41 4
22 0
11 0
21 4
1 0
7 1
32 0
1 1
32 2
13 1
4 0
7 4
12 2
7 3
15 0
13 0
9 4
37 0
0 4
9 3
11 4
24 0
12 4
27 0

